20
11 16
11 18
11 5
11 8
11 12
11 2
11 15
16 1
16 13
16 3
16 18
16 10
16 15
10 17
10 12
10 18
10 1
10 4
10 13
17 6
17 0
17 12
17 8
17 15
17 18
2 18
2 9
2 13
2 7
2 15
2 0
18 9
18 8
7 12
7 6
7 19
7 14
7 9
7 5
12 13
12 0
12 8
5 6
5 8
5 4
5 0
5 14
6 1
6 15
6 19
6 13
1 15
1 14
1 19
1 0
15 19
8 9
8 19
9 4
9 14
9 3
19 14
19 3
0 3
0 4
3 14
3 4
3 13
14 4
4 13
